c User generated cnf file
p cnf 13 58
12 12 -13 0 
-7 9 3 0 
6 11 -10 0 
1 -9 8 0 
6 -7 8 0 
3 1 -6 0 
-7 2 10 0 
11 9 -8 0 
-12 4 9 0 
-10 7 12 0 
-10 4 3 0 
13 12 -8 0 
8 -9 7 0 
3 -8 3 0 
12 -5 13 0 
-8 3 13 0 
-3 5 12 0 
13 4 -1 0 
-4 9 9 0 
-12 6 12 0 
-7 4 11 0 
4 12 -11 0 
10 -12 9 0 
7 -2 8 0 
3 -4 7 0 
8 -10 9 0 
-2 11 11 0 
13 -7 7 0 
-3 1 13 0 
3 4 -3 0 
10 -7 11 0 
3 12 -2 0 
8 3 -3 0 
8 -13 12 0 
-3 12 2 0 
-4 10 6 0 
6 -3 3 0 
-13 3 8 0 
12 -10 7 0 
-9 7 3 0 
1 -13 12 0 
9 -8 13 0 
10 4 -7 0 
1 -9 11 0 
-3 5 6 0 
4 12 -5 0 
10 -10 8 0 
-12 8 2 0 
11 5 -3 0 
-1 3 11 0 
-9 8 5 0 
6 13 -6 0 
-8 1 4 0 
10 -13 11 0 
3 -13 11 0 
-5 9 7 0 
2 -9 12 0 
8 8 -2 0 
